============================[ Problem Statistics ]=============================|                                                                             ||  Number of variables:          4242                                         ||  Number of clauses:            9786                                         ||  Parse time:                   0.19 s                                       ||                                                                             |============================[ Search Statistics ]==============================| Conflicts |          ORIGINAL         |          LEARNT          | Progress ||           |    Vars  Clauses Literals |    Limit  Clauses Lit/Cl |          |===============================================================================|       100 |    1591     5991   279082 |     2196      100     53 | 62.501 % |===============================================================================restarts              : 2conflicts             : 111            (345 /sec)decisions             : 283            (0.00 % random) (879 /sec)propagations          : 9873           (30661 /sec)conflict literals     : 6245           (95.82 % deleted)CPU time              : 0.322 sSATISFIABLE